HUN,8,6,494
1,26,5,23,0,22,4,25,2,22,3,22
2,26,3,25,5,25,0,28,4,23,1,23
2,25,4,22,5,24,3,26,1,27,0,24
3,24,4,28,2,26,5,29,1,29,0,29
4,26,1,25,5,25,0,29,2,26,3,29
4,22,2,30,0,23,5,24,1,26,3,25
0,30,3,23,2,22,5,27,4,27,1,26
4,25,3,25,0,23,5,29,1,30,2,29
